; benchmark generated from python API
(set-info :status unknown)
(declare-fun cell_1_2 () Int)
(declare-fun cell_1_6 () Int)
(declare-fun cell_2_3 () Int)
(declare-fun cell_2_4 () Int)
(declare-fun cell_3_8 () Int)
(declare-fun cell_3_9 () Int)
(declare-fun cell_4_4 () Int)
(declare-fun cell_4_8 () Int)
(declare-fun cell_5_2 () Int)
(declare-fun cell_5_5 () Int)
(declare-fun cell_6_3 () Int)
(declare-fun cell_6_9 () Int)
(declare-fun cell_7_1 () Int)
(declare-fun cell_7_5 () Int)
(declare-fun cell_8_7 () Int)
(declare-fun cell_9_1 () Int)
(declare-fun cell_1_1 () Int)
(declare-fun cell_2_1 () Int)
(declare-fun cell_3_1 () Int)
(declare-fun cell_4_1 () Int)
(declare-fun cell_5_1 () Int)
(declare-fun cell_6_1 () Int)
(declare-fun cell_8_1 () Int)
(declare-fun cell_2_2 () Int)
(declare-fun cell_3_2 () Int)
(declare-fun cell_4_2 () Int)
(declare-fun cell_6_2 () Int)
(declare-fun cell_7_2 () Int)
(declare-fun cell_8_2 () Int)
(declare-fun cell_9_2 () Int)
(declare-fun cell_1_3 () Int)
(declare-fun cell_3_3 () Int)
(declare-fun cell_4_3 () Int)
(declare-fun cell_5_3 () Int)
(declare-fun cell_7_3 () Int)
(declare-fun cell_8_3 () Int)
(declare-fun cell_9_3 () Int)
(declare-fun cell_1_4 () Int)
(declare-fun cell_3_4 () Int)
(declare-fun cell_5_4 () Int)
(declare-fun cell_6_4 () Int)
(declare-fun cell_7_4 () Int)
(declare-fun cell_8_4 () Int)
(declare-fun cell_9_4 () Int)
(declare-fun cell_1_5 () Int)
(declare-fun cell_2_5 () Int)
(declare-fun cell_3_5 () Int)
(declare-fun cell_4_5 () Int)
(declare-fun cell_6_5 () Int)
(declare-fun cell_8_5 () Int)
(declare-fun cell_9_5 () Int)
(declare-fun cell_2_6 () Int)
(declare-fun cell_3_6 () Int)
(declare-fun cell_4_6 () Int)
(declare-fun cell_5_6 () Int)
(declare-fun cell_6_6 () Int)
(declare-fun cell_7_6 () Int)
(declare-fun cell_8_6 () Int)
(declare-fun cell_9_6 () Int)
(declare-fun cell_1_7 () Int)
(declare-fun cell_2_7 () Int)
(declare-fun cell_3_7 () Int)
(declare-fun cell_4_7 () Int)
(declare-fun cell_5_7 () Int)
(declare-fun cell_6_7 () Int)
(declare-fun cell_7_7 () Int)
(declare-fun cell_9_7 () Int)
(declare-fun cell_1_8 () Int)
(declare-fun cell_2_8 () Int)
(declare-fun cell_5_8 () Int)
(declare-fun cell_6_8 () Int)
(declare-fun cell_7_8 () Int)
(declare-fun cell_8_8 () Int)
(declare-fun cell_9_8 () Int)
(declare-fun cell_1_9 () Int)
(declare-fun cell_2_9 () Int)
(declare-fun cell_4_9 () Int)
(declare-fun cell_5_9 () Int)
(declare-fun cell_7_9 () Int)
(declare-fun cell_8_9 () Int)
(declare-fun cell_9_9 () Int)
(assert
 (= cell_1_2 2))
(assert
 (= cell_1_6 1))
(assert
 (= cell_2_3 1))
(assert
 (= cell_2_4 2))
(assert
 (= cell_3_8 1))
(assert
 (= cell_3_9 2))
(assert
 (= cell_4_4 1))
(assert
 (= cell_4_8 2))
(assert
 (= cell_5_2 1))
(assert
 (= cell_5_5 2))
(assert
 (= cell_6_3 2))
(assert
 (= cell_6_9 1))
(assert
 (= cell_7_1 2))
(assert
 (= cell_7_5 1))
(assert
 (= cell_8_7 1))
(assert
 (= cell_9_1 1))
(assert
 (let (($x913 (= cell_1_1 9)))
 (let (($x912 (= cell_1_1 8)))
 (let (($x911 (= cell_1_1 7)))
 (let (($x910 (= cell_1_1 6)))
 (let (($x909 (= cell_1_1 5)))
 (let (($x908 (= cell_1_1 4)))
 (let (($x121 (= cell_1_1 3)))
 (let (($x906 (= cell_1_1 2)))
 (let (($x905 (= cell_1_1 1)))
 (or $x905 $x906 $x121 $x908 $x909 $x910 $x911 $x912 $x913)))))))))))
(assert
 (let (($x903 (= cell_2_1 9)))
 (let (($x902 (= cell_2_1 8)))
 (let (($x901 (= cell_2_1 7)))
 (let (($x900 (= cell_2_1 6)))
 (let (($x899 (= cell_2_1 5)))
 (let (($x898 (= cell_2_1 4)))
 (let (($x878 (= cell_2_1 3)))
 (let (($x896 (= cell_2_1 2)))
 (let (($x895 (= cell_2_1 1)))
 (or $x895 $x896 $x878 $x898 $x899 $x900 $x901 $x902 $x903)))))))))))
(assert
 (let (($x893 (= cell_3_1 9)))
 (let (($x892 (= cell_3_1 8)))
 (let (($x891 (= cell_3_1 7)))
 (let (($x890 (= cell_3_1 6)))
 (let (($x889 (= cell_3_1 5)))
 (let (($x888 (= cell_3_1 4)))
 (let (($x868 (= cell_3_1 3)))
 (let (($x887 (= cell_3_1 2)))
 (let (($x886 (= cell_3_1 1)))
 (or $x886 $x887 $x868 $x888 $x889 $x890 $x891 $x892 $x893)))))))))))
(assert
 (let (($x884 (= cell_4_1 9)))
 (let (($x883 (= cell_4_1 8)))
 (let (($x882 (= cell_4_1 7)))
 (let (($x881 (= cell_4_1 6)))
 (let (($x880 (= cell_4_1 5)))
 (let (($x879 (= cell_4_1 4)))
 (let (($x859 (= cell_4_1 3)))
 (let (($x877 (= cell_4_1 2)))
 (let (($x876 (= cell_4_1 1)))
 (or $x876 $x877 $x859 $x879 $x880 $x881 $x882 $x883 $x884)))))))))))
(assert
 (let (($x875 (= cell_5_1 9)))
 (let (($x874 (= cell_5_1 8)))
 (let (($x873 (= cell_5_1 7)))
 (let (($x872 (= cell_5_1 6)))
 (let (($x871 (= cell_5_1 5)))
 (let (($x870 (= cell_5_1 4)))
 (let (($x869 (= cell_5_1 3)))
 (let (($x867 (= cell_5_1 2)))
 (let (($x866 (= cell_5_1 1)))
 (or $x866 $x867 $x869 $x870 $x871 $x872 $x873 $x874 $x875)))))))))))
(assert
 (let (($x864 (= cell_6_1 9)))
 (let (($x863 (= cell_6_1 8)))
 (let (($x862 (= cell_6_1 7)))
 (let (($x861 (= cell_6_1 6)))
 (let (($x860 (= cell_6_1 5)))
 (let (($x929 (= cell_6_1 4)))
 (let (($x115 (= cell_6_1 3)))
 (let (($x858 (= cell_6_1 2)))
 (let (($x857 (= cell_6_1 1)))
 (or $x857 $x858 $x115 $x929 $x860 $x861 $x862 $x863 $x864)))))))))))
(assert
 (let (($x916 (= cell_7_1 2)))
 (or (= cell_7_1 1) $x916 (= cell_7_1 3) (= cell_7_1 4) (= cell_7_1 5) (= cell_7_1 6) (= cell_7_1 7) (= cell_7_1 8) (= cell_7_1 9))))
(assert
 (let (($x844 (= cell_8_1 9)))
 (let (($x843 (= cell_8_1 8)))
 (let (($x842 (= cell_8_1 7)))
 (let (($x841 (= cell_8_1 6)))
 (let (($x840 (= cell_8_1 5)))
 (let (($x839 (= cell_8_1 4)))
 (let (($x917 (= cell_8_1 3)))
 (let (($x836 (= cell_8_1 2)))
 (let (($x835 (= cell_8_1 1)))
 (or $x835 $x836 $x917 $x839 $x840 $x841 $x842 $x843 $x844)))))))))))
(assert
 (let (($x904 (= cell_9_1 1)))
 (or $x904 (= cell_9_1 2) (= cell_9_1 3) (= cell_9_1 4) (= cell_9_1 5) (= cell_9_1 6) (= cell_9_1 7) (= cell_9_1 8) (= cell_9_1 9))))
(assert
 (let (($x24 (= cell_1_2 2)))
 (or (= cell_1_2 1) $x24 (= cell_1_2 3) (= cell_1_2 4) (= cell_1_2 5) (= cell_1_2 6) (= cell_1_2 7) (= cell_1_2 8) (= cell_1_2 9))))
(assert
 (let (($x811 (= cell_2_2 9)))
 (let (($x810 (= cell_2_2 8)))
 (let (($x809 (= cell_2_2 7)))
 (let (($x828 (= cell_2_2 6)))
 (let (($x827 (= cell_2_2 5)))
 (let (($x806 (= cell_2_2 4)))
 (let (($x805 (= cell_2_2 3)))
 (let (($x824 (= cell_2_2 2)))
 (let (($x823 (= cell_2_2 1)))
 (or $x823 $x824 $x805 $x806 $x827 $x828 $x809 $x810 $x811)))))))))))
(assert
 (let (($x801 (= cell_3_2 9)))
 (let (($x800 (= cell_3_2 8)))
 (let (($x799 (= cell_3_2 7)))
 (let (($x818 (= cell_3_2 6)))
 (let (($x817 (= cell_3_2 5)))
 (let (($x795 (= cell_3_2 4)))
 (let (($x794 (= cell_3_2 3)))
 (let (($x814 (= cell_3_2 2)))
 (let (($x813 (= cell_3_2 1)))
 (or $x813 $x814 $x794 $x795 $x817 $x818 $x799 $x800 $x801)))))))))))
(assert
 (let (($x790 (= cell_4_2 9)))
 (let (($x789 (= cell_4_2 8)))
 (let (($x808 (= cell_4_2 7)))
 (let (($x807 (= cell_4_2 6)))
 (let (($x933 (= cell_4_2 5)))
 (let (($x785 (= cell_4_2 4)))
 (let (($x784 (= cell_4_2 3)))
 (let (($x804 (= cell_4_2 2)))
 (let (($x803 (= cell_4_2 1)))
 (or $x803 $x804 $x784 $x785 $x933 $x807 $x808 $x789 $x790)))))))))))
(assert
 (let (($x920 (= cell_5_2 1)))
 (or $x920 (= cell_5_2 2) (= cell_5_2 3) (= cell_5_2 4) (= cell_5_2 5) (= cell_5_2 6) (= cell_5_2 7) (= cell_5_2 8) (= cell_5_2 9))))
(assert
 (let (($x114 (= cell_6_2 9)))
 (let (($x788 (= cell_6_2 8)))
 (let (($x787 (= cell_6_2 7)))
 (let (($x786 (= cell_6_2 6)))
 (let (($x131 (= cell_6_2 5)))
 (let (($x767 (= cell_6_2 4)))
 (let (($x783 (= cell_6_2 3)))
 (let (($x782 (= cell_6_2 2)))
 (let (($x781 (= cell_6_2 1)))
 (or $x781 $x782 $x783 $x767 $x131 $x786 $x787 $x788 $x114)))))))))))
(assert
 (let (($x762 (= cell_7_2 9)))
 (let (($x761 (= cell_7_2 8)))
 (let (($x779 (= cell_7_2 7)))
 (let (($x778 (= cell_7_2 6)))
 (let (($x777 (= cell_7_2 5)))
 (let (($x137 (= cell_7_2 4)))
 (let (($x774 (= cell_7_2 3)))
 (let (($x773 (= cell_7_2 2)))
 (let (($x772 (= cell_7_2 1)))
 (or $x772 $x773 $x774 $x137 $x777 $x778 $x779 $x761 $x762)))))))))))
(assert
 (let (($x753 (= cell_8_2 9)))
 (let (($x752 (= cell_8_2 8)))
 (let (($x751 (= cell_8_2 7)))
 (let (($x770 (= cell_8_2 6)))
 (let (($x769 (= cell_8_2 5)))
 (let (($x768 (= cell_8_2 4)))
 (let (($x766 (= cell_8_2 3)))
 (let (($x765 (= cell_8_2 2)))
 (let (($x764 (= cell_8_2 1)))
 (or $x764 $x765 $x766 $x768 $x769 $x770 $x751 $x752 $x753)))))))))))
(assert
 (let (($x756 (= cell_9_2 2)))
 (let (($x755 (= cell_9_2 1)))
 (or $x755 $x756 (= cell_9_2 3) (= cell_9_2 4) (= cell_9_2 5) (= cell_9_2 6) (= cell_9_2 7) (= cell_9_2 8) (= cell_9_2 9)))))
(assert
 (let (($x732 (= cell_1_3 9)))
 (let (($x124 (= cell_1_3 8)))
 (let (($x750 (= cell_1_3 7)))
 (let (($x749 (= cell_1_3 6)))
 (let (($x748 (= cell_1_3 5)))
 (let (($x939 (= cell_1_3 4)))
 (let (($x747 (= cell_1_3 3)))
 (let (($x746 (= cell_1_3 2)))
 (let (($x745 (= cell_1_3 1)))
 (or $x745 $x746 $x747 $x939 $x748 $x749 $x750 $x124 $x732)))))))))))
(assert
 (let (($x926 (= cell_2_3 1)))
 (or $x926 (= cell_2_3 2) (= cell_2_3 3) (= cell_2_3 4) (= cell_2_3 5) (= cell_2_3 6) (= cell_2_3 7) (= cell_2_3 8) (= cell_2_3 9))))
(assert
 (let (($x713 (= cell_3_3 9)))
 (let (($x712 (= cell_3_3 8)))
 (let (($x731 (= cell_3_3 7)))
 (let (($x730 (= cell_3_3 6)))
 (let (($x729 (= cell_3_3 5)))
 (let (($x727 (= cell_3_3 4)))
 (let (($x726 (= cell_3_3 3)))
 (let (($x725 (= cell_3_3 2)))
 (let (($x724 (= cell_3_3 1)))
 (or $x724 $x725 $x726 $x727 $x729 $x730 $x731 $x712 $x713)))))))))))
(assert
 (let (($x703 (= cell_4_3 9)))
 (let (($x702 (= cell_4_3 8)))
 (let (($x721 (= cell_4_3 7)))
 (let (($x720 (= cell_4_3 6)))
 (let (($x719 (= cell_4_3 5)))
 (let (($x737 (= cell_4_3 4)))
 (let (($x717 (= cell_4_3 3)))
 (let (($x716 (= cell_4_3 2)))
 (let (($x715 (= cell_4_3 1)))
 (or $x715 $x716 $x717 $x737 $x719 $x720 $x721 $x702 $x703)))))))))))
(assert
 (let (($x692 (= cell_5_3 9)))
 (let (($x711 (= cell_5_3 8)))
 (let (($x710 (= cell_5_3 7)))
 (let (($x709 (= cell_5_3 6)))
 (let (($x931 (= cell_5_3 5)))
 (let (($x728 (= cell_5_3 4)))
 (let (($x707 (= cell_5_3 3)))
 (let (($x706 (= cell_5_3 2)))
 (let (($x705 (= cell_5_3 1)))
 (or $x705 $x706 $x707 $x728 $x931 $x709 $x710 $x711 $x692)))))))))))
(assert
 (let (($x918 (= cell_6_3 2)))
 (or (= cell_6_3 1) $x918 (= cell_6_3 3) (= cell_6_3 4) (= cell_6_3 5) (= cell_6_3 6) (= cell_6_3 7) (= cell_6_3 8) (= cell_6_3 9))))
(assert
 (let (($x691 (= cell_7_3 9)))
 (let (($x690 (= cell_7_3 8)))
 (let (($x689 (= cell_7_3 7)))
 (let (($x688 (= cell_7_3 6)))
 (let (($x708 (= cell_7_3 5)))
 (let (($x686 (= cell_7_3 4)))
 (let (($x685 (= cell_7_3 3)))
 (let (($x684 (= cell_7_3 2)))
 (let (($x683 (= cell_7_3 1)))
 (or $x683 $x684 $x685 $x686 $x708 $x688 $x689 $x690 $x691)))))))))))
(assert
 (let (($x681 (= cell_8_3 9)))
 (let (($x680 (= cell_8_3 8)))
 (let (($x679 (= cell_8_3 7)))
 (let (($x678 (= cell_8_3 6)))
 (let (($x697 (= cell_8_3 5)))
 (let (($x676 (= cell_8_3 4)))
 (let (($x675 (= cell_8_3 3)))
 (let (($x674 (= cell_8_3 2)))
 (let (($x673 (= cell_8_3 1)))
 (or $x673 $x674 $x675 $x676 $x697 $x678 $x679 $x680 $x681)))))))))))
(assert
 (let (($x664 (= cell_9_3 2)))
 (let (($x663 (= cell_9_3 1)))
 (or $x663 $x664 (= cell_9_3 3) (= cell_9_3 4) (= cell_9_3 5) (= cell_9_3 6) (= cell_9_3 7) (= cell_9_3 8) (= cell_9_3 9)))))
(assert
 (let (($x660 (= cell_1_4 9)))
 (let (($x659 (= cell_1_4 8)))
 (let (($x658 (= cell_1_4 7)))
 (let (($x938 (= cell_1_4 6)))
 (let (($x677 (= cell_1_4 5)))
 (let (($x656 (= cell_1_4 4)))
 (let (($x655 (= cell_1_4 3)))
 (let (($x654 (= cell_1_4 2)))
 (let (($x653 (= cell_1_4 1)))
 (or $x653 $x654 $x655 $x656 $x677 $x938 $x658 $x659 $x660)))))))))))
(assert
 (let (($x925 (= cell_2_4 2)))
 (or (= cell_2_4 1) $x925 (= cell_2_4 3) (= cell_2_4 4) (= cell_2_4 5) (= cell_2_4 6) (= cell_2_4 7) (= cell_2_4 8) (= cell_2_4 9))))
(assert
 (let (($x640 (= cell_3_4 9)))
 (let (($x639 (= cell_3_4 8)))
 (let (($x638 (= cell_3_4 7)))
 (let (($x637 (= cell_3_4 6)))
 (let (($x657 (= cell_3_4 5)))
 (let (($x636 (= cell_3_4 4)))
 (let (($x635 (= cell_3_4 3)))
 (let (($x634 (= cell_3_4 2)))
 (let (($x633 (= cell_3_4 1)))
 (or $x633 $x634 $x635 $x636 $x657 $x637 $x638 $x639 $x640)))))))))))
(assert
 (let (($x922 (= cell_4_4 1)))
 (or $x922 (= cell_4_4 2) (= cell_4_4 3) (= cell_4_4 4) (= cell_4_4 5) (= cell_4_4 6) (= cell_4_4 7) (= cell_4_4 8) (= cell_4_4 9))))
(assert
 (let (($x619 (= cell_5_4 9)))
 (let (($x618 (= cell_5_4 8)))
 (let (($x617 (= cell_5_4 7)))
 (let (($x935 (= cell_5_4 6)))
 (let (($x615 (= cell_5_4 5)))
 (let (($x614 (= cell_5_4 4)))
 (let (($x613 (= cell_5_4 3)))
 (let (($x612 (= cell_5_4 2)))
 (let (($x631 (= cell_5_4 1)))
 (or $x631 $x612 $x613 $x614 $x615 $x935 $x617 $x618 $x619)))))))))))
(assert
 (let (($x609 (= cell_6_4 9)))
 (let (($x608 (= cell_6_4 8)))
 (let (($x607 (= cell_6_4 7)))
 (let (($x626 (= cell_6_4 6)))
 (let (($x605 (= cell_6_4 5)))
 (let (($x604 (= cell_6_4 4)))
 (let (($x603 (= cell_6_4 3)))
 (let (($x602 (= cell_6_4 2)))
 (let (($x621 (= cell_6_4 1)))
 (or $x621 $x602 $x603 $x604 $x605 $x626 $x607 $x608 $x609)))))))))))
(assert
 (let (($x599 (= cell_7_4 9)))
 (let (($x598 (= cell_7_4 8)))
 (let (($x597 (= cell_7_4 7)))
 (let (($x616 (= cell_7_4 6)))
 (let (($x595 (= cell_7_4 5)))
 (let (($x594 (= cell_7_4 4)))
 (let (($x593 (= cell_7_4 3)))
 (let (($x592 (= cell_7_4 2)))
 (let (($x611 (= cell_7_4 1)))
 (or $x611 $x592 $x593 $x594 $x595 $x616 $x597 $x598 $x599)))))))))))
(assert
 (let (($x589 (= cell_8_4 9)))
 (let (($x588 (= cell_8_4 8)))
 (let (($x587 (= cell_8_4 7)))
 (let (($x606 (= cell_8_4 6)))
 (let (($x585 (= cell_8_4 5)))
 (let (($x584 (= cell_8_4 4)))
 (let (($x583 (= cell_8_4 3)))
 (let (($x582 (= cell_8_4 2)))
 (let (($x601 (= cell_8_4 1)))
 (or $x601 $x582 $x583 $x584 $x585 $x606 $x587 $x588 $x589)))))))))))
(assert
 (let (($x111 (= cell_9_4 2)))
 (let (($x591 (= cell_9_4 1)))
 (or $x591 $x111 (= cell_9_4 3) (= cell_9_4 4) (= cell_9_4 5) (= cell_9_4 6) (= cell_9_4 7) (= cell_9_4 8) (= cell_9_4 9)))))
(assert
 (let (($x571 (= cell_1_5 9)))
 (let (($x570 (= cell_1_5 8)))
 (let (($x569 (= cell_1_5 7)))
 (let (($x586 (= cell_1_5 6)))
 (let (($x566 (= cell_1_5 5)))
 (let (($x565 (= cell_1_5 4)))
 (let (($x564 (= cell_1_5 3)))
 (let (($x563 (= cell_1_5 2)))
 (let (($x581 (= cell_1_5 1)))
 (or $x581 $x563 $x564 $x565 $x566 $x586 $x569 $x570 $x571)))))))))))
(assert
 (let (($x561 (= cell_2_5 9)))
 (let (($x560 (= cell_2_5 8)))
 (let (($x559 (= cell_2_5 7)))
 (let (($x577 (= cell_2_5 6)))
 (let (($x576 (= cell_2_5 5)))
 (let (($x556 (= cell_2_5 4)))
 (let (($x555 (= cell_2_5 3)))
 (let (($x554 (= cell_2_5 2)))
 (let (($x553 (= cell_2_5 1)))
 (or $x553 $x554 $x555 $x556 $x576 $x577 $x559 $x560 $x561)))))))))))
(assert
 (let (($x551 (= cell_3_5 9)))
 (let (($x550 (= cell_3_5 8)))
 (let (($x150 (= cell_3_5 7)))
 (let (($x568 (= cell_3_5 6)))
 (let (($x567 (= cell_3_5 5)))
 (let (($x546 (= cell_3_5 4)))
 (let (($x545 (= cell_3_5 3)))
 (let (($x544 (= cell_3_5 2)))
 (let (($x123 (= cell_3_5 1)))
 (or $x123 $x544 $x545 $x546 $x567 $x568 $x150 $x550 $x551)))))))))))
(assert
 (let (($x542 (= cell_4_5 9)))
 (let (($x541 (= cell_4_5 8)))
 (let (($x540 (= cell_4_5 7)))
 (let (($x558 (= cell_4_5 6)))
 (let (($x557 (= cell_4_5 5)))
 (let (($x537 (= cell_4_5 4)))
 (let (($x536 (= cell_4_5 3)))
 (let (($x535 (= cell_4_5 2)))
 (let (($x534 (= cell_4_5 1)))
 (or $x534 $x535 $x536 $x537 $x557 $x558 $x540 $x541 $x542)))))))))))
(assert
 (let (($x919 (= cell_5_5 2)))
 (or (= cell_5_5 1) $x919 (= cell_5_5 3) (= cell_5_5 4) (= cell_5_5 5) (= cell_5_5 6) (= cell_5_5 7) (= cell_5_5 8) (= cell_5_5 9))))
(assert
 (let (($x522 (= cell_6_5 9)))
 (let (($x521 (= cell_6_5 8)))
 (let (($x539 (= cell_6_5 7)))
 (let (($x932 (= cell_6_5 6)))
 (let (($x538 (= cell_6_5 5)))
 (let (($x517 (= cell_6_5 4)))
 (let (($x516 (= cell_6_5 3)))
 (let (($x515 (= cell_6_5 2)))
 (let (($x533 (= cell_6_5 1)))
 (or $x533 $x515 $x516 $x517 $x538 $x932 $x539 $x521 $x522)))))))))))
(assert
 (let (($x915 (= cell_7_5 1)))
 (or $x915 (= cell_7_5 2) (= cell_7_5 3) (= cell_7_5 4) (= cell_7_5 5) (= cell_7_5 6) (= cell_7_5 7) (= cell_7_5 8) (= cell_7_5 9))))
(assert
 (let (($x501 (= cell_8_5 9)))
 (let (($x520 (= cell_8_5 8)))
 (let (($x519 (= cell_8_5 7)))
 (let (($x518 (= cell_8_5 6)))
 (let (($x928 (= cell_8_5 5)))
 (let (($x496 (= cell_8_5 4)))
 (let (($x495 (= cell_8_5 3)))
 (let (($x514 (= cell_8_5 2)))
 (let (($x513 (= cell_8_5 1)))
 (or $x513 $x514 $x495 $x496 $x928 $x518 $x519 $x520 $x501)))))))))))
(assert
 (let (($x504 (= cell_9_5 2)))
 (let (($x503 (= cell_9_5 1)))
 (or $x503 $x504 (= cell_9_5 3) (= cell_9_5 4) (= cell_9_5 5) (= cell_9_5 6) (= cell_9_5 7) (= cell_9_5 8) (= cell_9_5 9)))))
(assert
 (let (($x907 (= cell_1_6 1)))
 (or $x907 (= cell_1_6 2) (= cell_1_6 3) (= cell_1_6 4) (= cell_1_6 5) (= cell_1_6 6) (= cell_1_6 7) (= cell_1_6 8) (= cell_1_6 9))))
(assert
 (let (($x489 (= cell_2_6 9)))
 (let (($x488 (= cell_2_6 8)))
 (let (($x487 (= cell_2_6 7)))
 (let (($x940 (= cell_2_6 6)))
 (let (($x465 (= cell_2_6 5)))
 (let (($x484 (= cell_2_6 4)))
 (let (($x483 (= cell_2_6 3)))
 (let (($x482 (= cell_2_6 2)))
 (let (($x481 (= cell_2_6 1)))
 (or $x481 $x482 $x483 $x484 $x465 $x940 $x487 $x488 $x489)))))))))))
(assert
 (let (($x479 (= cell_3_6 9)))
 (let (($x478 (= cell_3_6 8)))
 (let (($x477 (= cell_3_6 7)))
 (let (($x476 (= cell_3_6 6)))
 (let (($x455 (= cell_3_6 5)))
 (let (($x474 (= cell_3_6 4)))
 (let (($x473 (= cell_3_6 3)))
 (let (($x472 (= cell_3_6 2)))
 (let (($x471 (= cell_3_6 1)))
 (or $x471 $x472 $x473 $x474 $x455 $x476 $x477 $x478 $x479)))))))))))
(assert
 (let (($x469 (= cell_4_6 9)))
 (let (($x468 (= cell_4_6 8)))
 (let (($x467 (= cell_4_6 7)))
 (let (($x466 (= cell_4_6 6)))
 (let (($x445 (= cell_4_6 5)))
 (let (($x464 (= cell_4_6 4)))
 (let (($x463 (= cell_4_6 3)))
 (let (($x462 (= cell_4_6 2)))
 (let (($x461 (= cell_4_6 1)))
 (or $x461 $x462 $x463 $x464 $x445 $x466 $x467 $x468 $x469)))))))))))
(assert
 (let (($x452 (= cell_5_6 2)))
 (let (($x451 (= cell_5_6 1)))
 (or $x451 $x452 (= cell_5_6 3) (= cell_5_6 4) (= cell_5_6 5) (= cell_5_6 6) (= cell_5_6 7) (= cell_5_6 8) (= cell_5_6 9)))))
(assert
 (let (($x449 (= cell_6_6 9)))
 (let (($x448 (= cell_6_6 8)))
 (let (($x447 (= cell_6_6 7)))
 (let (($x446 (= cell_6_6 6)))
 (let (($x116 (= cell_6_6 5)))
 (let (($x444 (= cell_6_6 4)))
 (let (($x443 (= cell_6_6 3)))
 (let (($x442 (= cell_6_6 2)))
 (let (($x441 (= cell_6_6 1)))
 (or $x441 $x442 $x443 $x444 $x116 $x446 $x447 $x448 $x449)))))))))))
(assert
 (let (($x439 (= cell_7_6 9)))
 (let (($x438 (= cell_7_6 8)))
 (let (($x437 (= cell_7_6 7)))
 (let (($x436 (= cell_7_6 6)))
 (let (($x416 (= cell_7_6 5)))
 (let (($x434 (= cell_7_6 4)))
 (let (($x433 (= cell_7_6 3)))
 (let (($x432 (= cell_7_6 2)))
 (let (($x431 (= cell_7_6 1)))
 (or $x431 $x432 $x433 $x434 $x416 $x436 $x437 $x438 $x439)))))))))))
(assert
 (let (($x430 (= cell_8_6 9)))
 (let (($x429 (= cell_8_6 8)))
 (let (($x428 (= cell_8_6 7)))
 (let (($x427 (= cell_8_6 6)))
 (let (($x426 (= cell_8_6 5)))
 (let (($x407 (= cell_8_6 4)))
 (let (($x425 (= cell_8_6 3)))
 (let (($x424 (= cell_8_6 2)))
 (let (($x423 (= cell_8_6 1)))
 (or $x423 $x424 $x425 $x407 $x426 $x427 $x428 $x429 $x430)))))))))))
(assert
 (let (($x139 (= cell_9_6 1)))
 (or $x139 (= cell_9_6 2) (= cell_9_6 3) (= cell_9_6 4) (= cell_9_6 5) (= cell_9_6 6) (= cell_9_6 7) (= cell_9_6 8) (= cell_9_6 9))))
(assert
 (let (($x411 (= cell_1_7 9)))
 (let (($x410 (= cell_1_7 8)))
 (let (($x409 (= cell_1_7 7)))
 (let (($x408 (= cell_1_7 6)))
 (let (($x113 (= cell_1_7 5)))
 (let (($x387 (= cell_1_7 4)))
 (let (($x406 (= cell_1_7 3)))
 (let (($x405 (= cell_1_7 2)))
 (let (($x404 (= cell_1_7 1)))
 (or $x404 $x405 $x406 $x387 $x113 $x408 $x409 $x410 $x411)))))))))))
(assert
 (let (($x402 (= cell_2_7 9)))
 (let (($x401 (= cell_2_7 8)))
 (let (($x400 (= cell_2_7 7)))
 (let (($x399 (= cell_2_7 6)))
 (let (($x398 (= cell_2_7 5)))
 (let (($x377 (= cell_2_7 4)))
 (let (($x396 (= cell_2_7 3)))
 (let (($x395 (= cell_2_7 2)))
 (let (($x394 (= cell_2_7 1)))
 (or $x394 $x395 $x396 $x377 $x398 $x399 $x400 $x401 $x402)))))))))))
(assert
 (let (($x392 (= cell_3_7 9)))
 (let (($x391 (= cell_3_7 8)))
 (let (($x390 (= cell_3_7 7)))
 (let (($x389 (= cell_3_7 6)))
 (let (($x388 (= cell_3_7 5)))
 (let (($x367 (= cell_3_7 4)))
 (let (($x386 (= cell_3_7 3)))
 (let (($x385 (= cell_3_7 2)))
 (let (($x384 (= cell_3_7 1)))
 (or $x384 $x385 $x386 $x367 $x388 $x389 $x390 $x391 $x392)))))))))))
(assert
 (let (($x382 (= cell_4_7 9)))
 (let (($x381 (= cell_4_7 8)))
 (let (($x380 (= cell_4_7 7)))
 (let (($x379 (= cell_4_7 6)))
 (let (($x378 (= cell_4_7 5)))
 (let (($x358 (= cell_4_7 4)))
 (let (($x376 (= cell_4_7 3)))
 (let (($x375 (= cell_4_7 2)))
 (let (($x374 (= cell_4_7 1)))
 (or $x374 $x375 $x376 $x358 $x378 $x379 $x380 $x381 $x382)))))))))))
(assert
 (let (($x372 (= cell_5_7 9)))
 (let (($x371 (= cell_5_7 8)))
 (let (($x370 (= cell_5_7 7)))
 (let (($x369 (= cell_5_7 6)))
 (let (($x368 (= cell_5_7 5)))
 (let (($x348 (= cell_5_7 4)))
 (let (($x366 (= cell_5_7 3)))
 (let (($x365 (= cell_5_7 2)))
 (let (($x126 (= cell_5_7 1)))
 (or $x126 $x365 $x366 $x348 $x368 $x369 $x370 $x371 $x372)))))))))))
(assert
 (let (($x363 (= cell_6_7 9)))
 (let (($x362 (= cell_6_7 8)))
 (let (($x361 (= cell_6_7 7)))
 (let (($x360 (= cell_6_7 6)))
 (let (($x359 (= cell_6_7 5)))
 (let (($x120 (= cell_6_7 4)))
 (let (($x338 (= cell_6_7 3)))
 (let (($x357 (= cell_6_7 2)))
 (let (($x356 (= cell_6_7 1)))
 (or $x356 $x357 $x338 $x120 $x359 $x360 $x361 $x362 $x363)))))))))))
(assert
 (let (($x354 (= cell_7_7 9)))
 (let (($x353 (= cell_7_7 8)))
 (let (($x352 (= cell_7_7 7)))
 (let (($x351 (= cell_7_7 6)))
 (let (($x350 (= cell_7_7 5)))
 (let (($x349 (= cell_7_7 4)))
 (let (($x328 (= cell_7_7 3)))
 (let (($x347 (= cell_7_7 2)))
 (let (($x346 (= cell_7_7 1)))
 (or $x346 $x347 $x328 $x349 $x350 $x351 $x352 $x353 $x354)))))))))))
(assert
 (let (($x914 (= cell_8_7 1)))
 (or $x914 (= cell_8_7 2) (= cell_8_7 3) (= cell_8_7 4) (= cell_8_7 5) (= cell_8_7 6) (= cell_8_7 7) (= cell_8_7 8) (= cell_8_7 9))))
(assert
 (let (($x141 (= cell_9_7 1)))
 (or $x141 (= cell_9_7 2) (= cell_9_7 3) (= cell_9_7 4) (= cell_9_7 5) (= cell_9_7 6) (= cell_9_7 7) (= cell_9_7 8) (= cell_9_7 9))))
(assert
 (let (($x323 (= cell_1_8 9)))
 (let (($x322 (= cell_1_8 8)))
 (let (($x321 (= cell_1_8 7)))
 (let (($x320 (= cell_1_8 6)))
 (let (($x319 (= cell_1_8 5)))
 (let (($x112 (= cell_1_8 4)))
 (let (($x318 (= cell_1_8 3)))
 (let (($x317 (= cell_1_8 2)))
 (let (($x316 (= cell_1_8 1)))
 (or $x316 $x317 $x318 $x112 $x319 $x320 $x321 $x322 $x323)))))))))))
(assert
 (let (($x314 (= cell_2_8 9)))
 (let (($x313 (= cell_2_8 8)))
 (let (($x312 (= cell_2_8 7)))
 (let (($x311 (= cell_2_8 6)))
 (let (($x310 (= cell_2_8 5)))
 (let (($x309 (= cell_2_8 4)))
 (let (($x308 (= cell_2_8 3)))
 (let (($x307 (= cell_2_8 2)))
 (let (($x306 (= cell_2_8 1)))
 (or $x306 $x307 $x308 $x309 $x310 $x311 $x312 $x313 $x314)))))))))))
(assert
 (let (($x924 (= cell_3_8 1)))
 (or $x924 (= cell_3_8 2) (= cell_3_8 3) (= cell_3_8 4) (= cell_3_8 5) (= cell_3_8 6) (= cell_3_8 7) (= cell_3_8 8) (= cell_3_8 9))))
(assert
 (let (($x921 (= cell_4_8 2)))
 (or (= cell_4_8 1) $x921 (= cell_4_8 3) (= cell_4_8 4) (= cell_4_8 5) (= cell_4_8 6) (= cell_4_8 7) (= cell_4_8 8) (= cell_4_8 9))))
(assert
 (let (($x280 (= cell_5_8 9)))
 (let (($x279 (= cell_5_8 8)))
 (let (($x934 (= cell_5_8 7)))
 (let (($x298 (= cell_5_8 6)))
 (let (($x276 (= cell_5_8 5)))
 (let (($x275 (= cell_5_8 4)))
 (let (($x274 (= cell_5_8 3)))
 (let (($x294 (= cell_5_8 2)))
 (let (($x293 (= cell_5_8 1)))
 (or $x293 $x294 $x274 $x275 $x276 $x298 $x934 $x279 $x280)))))))))))
(assert
 (let (($x270 (= cell_6_8 9)))
 (let (($x269 (= cell_6_8 8)))
 (let (($x288 (= cell_6_8 7)))
 (let (($x287 (= cell_6_8 6)))
 (let (($x266 (= cell_6_8 5)))
 (let (($x265 (= cell_6_8 4)))
 (let (($x129 (= cell_6_8 3)))
 (let (($x283 (= cell_6_8 2)))
 (let (($x282 (= cell_6_8 1)))
 (or $x282 $x283 $x129 $x265 $x266 $x287 $x288 $x269 $x270)))))))))))
(assert
 (let (($x261 (= cell_7_8 9)))
 (let (($x260 (= cell_7_8 8)))
 (let (($x118 (= cell_7_8 7)))
 (let (($x278 (= cell_7_8 6)))
 (let (($x277 (= cell_7_8 5)))
 (let (($x257 (= cell_7_8 4)))
 (let (($x256 (= cell_7_8 3)))
 (let (($x273 (= cell_7_8 2)))
 (let (($x272 (= cell_7_8 1)))
 (or $x272 $x273 $x256 $x257 $x277 $x278 $x118 $x260 $x261)))))))))))
(assert
 (let (($x264 (= cell_8_8 2)))
 (let (($x263 (= cell_8_8 1)))
 (or $x263 $x264 (= cell_8_8 3) (= cell_8_8 4) (= cell_8_8 5) (= cell_8_8 6) (= cell_8_8 7) (= cell_8_8 8) (= cell_8_8 9)))))
(assert
 (let (($x255 (= cell_9_8 2)))
 (let (($x254 (= cell_9_8 1)))
 (or $x254 $x255 (= cell_9_8 3) (= cell_9_8 4) (= cell_9_8 5) (= cell_9_8 6) (= cell_9_8 7) (= cell_9_8 8) (= cell_9_8 9)))))
(assert
 (let (($x232 (= cell_1_9 9)))
 (let (($x231 (= cell_1_9 8)))
 (let (($x230 (= cell_1_9 7)))
 (let (($x249 (= cell_1_9 6)))
 (let (($x248 (= cell_1_9 5)))
 (let (($x40 (= cell_1_9 4)))
 (let (($x227 (= cell_1_9 3)))
 (let (($x245 (= cell_1_9 2)))
 (let (($x244 (= cell_1_9 1)))
 (or $x244 $x245 $x227 $x40 $x248 $x249 $x230 $x231 $x232)))))))))))
(assert
 (let (($x223 (= cell_2_9 9)))
 (let (($x222 (= cell_2_9 8)))
 (let (($x91 (= cell_2_9 7)))
 (let (($x221 (= cell_2_9 6)))
 (let (($x239 (= cell_2_9 5)))
 (let (($x238 (= cell_2_9 4)))
 (let (($x159 (= cell_2_9 3)))
 (let (($x235 (= cell_2_9 2)))
 (let (($x234 (= cell_2_9 1)))
 (or $x234 $x235 $x159 $x238 $x239 $x221 $x91 $x222 $x223)))))))))))
(assert
 (let (($x923 (= cell_3_9 2)))
 (or (= cell_3_9 1) $x923 (= cell_3_9 3) (= cell_3_9 4) (= cell_3_9 5) (= cell_3_9 6) (= cell_3_9 7) (= cell_3_9 8) (= cell_3_9 9))))
(assert
 (let (($x204 (= cell_4_9 9)))
 (let (($x203 (= cell_4_9 8)))
 (let (($x202 (= cell_4_9 7)))
 (let (($x220 (= cell_4_9 6)))
 (let (($x151 (= cell_4_9 5)))
 (let (($x936 (= cell_4_9 4)))
 (let (($x218 (= cell_4_9 3)))
 (let (($x217 (= cell_4_9 2)))
 (let (($x216 (= cell_4_9 1)))
 (or $x216 $x217 $x218 $x936 $x151 $x220 $x202 $x203 $x204)))))))))))
(assert
 (let (($x195 (= cell_5_9 9)))
 (let (($x194 (= cell_5_9 8)))
 (let (($x122 (= cell_5_9 7)))
 (let (($x193 (= cell_5_9 6)))
 (let (($x211 (= cell_5_9 5)))
 (let (($x210 (= cell_5_9 4)))
 (let (($x208 (= cell_5_9 3)))
 (let (($x207 (= cell_5_9 2)))
 (let (($x206 (= cell_5_9 1)))
 (or $x206 $x207 $x208 $x210 $x211 $x193 $x122 $x194 $x195)))))))))))
(assert
 (let (($x897 (= cell_6_9 1)))
 (or $x897 (= cell_6_9 2) (= cell_6_9 3) (= cell_6_9 4) (= cell_6_9 5) (= cell_6_9 6) (= cell_6_9 7) (= cell_6_9 8) (= cell_6_9 9))))
(assert
 (let (($x174 (= cell_7_9 9)))
 (let (($x173 (= cell_7_9 8)))
 (let (($x192 (= cell_7_9 7)))
 (let (($x191 (= cell_7_9 6)))
 (let (($x190 (= cell_7_9 5)))
 (let (($x209 (= cell_7_9 4)))
 (let (($x189 (= cell_7_9 3)))
 (let (($x188 (= cell_7_9 2)))
 (let (($x187 (= cell_7_9 1)))
 (or $x187 $x188 $x189 $x209 $x190 $x191 $x192 $x173 $x174)))))))))))
(assert
 (let (($x177 (= cell_8_9 2)))
 (let (($x176 (= cell_8_9 1)))
 (or $x176 $x177 (= cell_8_9 3) (= cell_8_9 4) (= cell_8_9 5) (= cell_8_9 6) (= cell_8_9 7) (= cell_8_9 8) (= cell_8_9 9)))))
(assert
 (let (($x167 (= cell_9_9 2)))
 (let (($x166 (= cell_9_9 1)))
 (or $x166 $x167 (= cell_9_9 3) (= cell_9_9 4) (= cell_9_9 5) (= cell_9_9 6) (= cell_9_9 7) (= cell_9_9 8) (= cell_9_9 9)))))
(assert
 (and (distinct cell_1_1 cell_1_2 cell_1_3 cell_1_4 cell_1_5 cell_1_6 cell_1_7 cell_1_8 cell_1_9) true))
(assert
 (and (distinct cell_2_1 cell_2_2 cell_2_3 cell_2_4 cell_2_5 cell_2_6 cell_2_7 cell_2_8 cell_2_9) true))
(assert
 (and (distinct cell_3_1 cell_3_2 cell_3_3 cell_3_4 cell_3_5 cell_3_6 cell_3_7 cell_3_8 cell_3_9) true))
(assert
 (and (distinct cell_4_1 cell_4_2 cell_4_3 cell_4_4 cell_4_5 cell_4_6 cell_4_7 cell_4_8 cell_4_9) true))
(assert
 (and (distinct cell_5_1 cell_5_2 cell_5_3 cell_5_4 cell_5_5 cell_5_6 cell_5_7 cell_5_8 cell_5_9) true))
(assert
 (and (distinct cell_6_1 cell_6_2 cell_6_3 cell_6_4 cell_6_5 cell_6_6 cell_6_7 cell_6_8 cell_6_9) true))
(assert
 (and (distinct cell_7_1 cell_7_2 cell_7_3 cell_7_4 cell_7_5 cell_7_6 cell_7_7 cell_7_8 cell_7_9) true))
(assert
 (and (distinct cell_8_1 cell_8_2 cell_8_3 cell_8_4 cell_8_5 cell_8_6 cell_8_7 cell_8_8 cell_8_9) true))
(assert
 (and (distinct cell_9_1 cell_9_2 cell_9_3 cell_9_4 cell_9_5 cell_9_6 cell_9_7 cell_9_8 cell_9_9) true))
(assert
 (and (distinct cell_1_1 cell_2_1 cell_3_1 cell_4_1 cell_5_1 cell_6_1 cell_7_1 cell_8_1 cell_9_1) true))
(assert
 (and (distinct cell_1_2 cell_2_2 cell_3_2 cell_4_2 cell_5_2 cell_6_2 cell_7_2 cell_8_2 cell_9_2) true))
(assert
 (and (distinct cell_1_3 cell_2_3 cell_3_3 cell_4_3 cell_5_3 cell_6_3 cell_7_3 cell_8_3 cell_9_3) true))
(assert
 (and (distinct cell_1_4 cell_2_4 cell_3_4 cell_4_4 cell_5_4 cell_6_4 cell_7_4 cell_8_4 cell_9_4) true))
(assert
 (and (distinct cell_1_5 cell_2_5 cell_3_5 cell_4_5 cell_5_5 cell_6_5 cell_7_5 cell_8_5 cell_9_5) true))
(assert
 (and (distinct cell_1_6 cell_2_6 cell_3_6 cell_4_6 cell_5_6 cell_6_6 cell_7_6 cell_8_6 cell_9_6) true))
(assert
 (and (distinct cell_1_7 cell_2_7 cell_3_7 cell_4_7 cell_5_7 cell_6_7 cell_7_7 cell_8_7 cell_9_7) true))
(assert
 (and (distinct cell_1_8 cell_2_8 cell_3_8 cell_4_8 cell_5_8 cell_6_8 cell_7_8 cell_8_8 cell_9_8) true))
(assert
 (and (distinct cell_1_9 cell_2_9 cell_3_9 cell_4_9 cell_5_9 cell_6_9 cell_7_9 cell_8_9 cell_9_9) true))
(assert
 (and (distinct cell_1_1 cell_1_2 cell_1_3 cell_2_1 cell_2_2 cell_2_3 cell_3_1 cell_3_2 cell_3_3) true))
(assert
 (and (distinct cell_1_4 cell_1_5 cell_1_6 cell_2_4 cell_2_5 cell_2_6 cell_3_4 cell_3_5 cell_3_6) true))
(assert
 (and (distinct cell_1_7 cell_1_8 cell_1_9 cell_2_7 cell_2_8 cell_2_9 cell_3_7 cell_3_8 cell_3_9) true))
(assert
 (and (distinct cell_4_1 cell_4_2 cell_4_3 cell_5_1 cell_5_2 cell_5_3 cell_6_1 cell_6_2 cell_6_3) true))
(assert
 (and (distinct cell_4_4 cell_4_5 cell_4_6 cell_5_4 cell_5_5 cell_5_6 cell_6_4 cell_6_5 cell_6_6) true))
(assert
 (and (distinct cell_4_7 cell_4_8 cell_4_9 cell_5_7 cell_5_8 cell_5_9 cell_6_7 cell_6_8 cell_6_9) true))
(assert
 (and (distinct cell_7_1 cell_7_2 cell_7_3 cell_8_1 cell_8_2 cell_8_3 cell_9_1 cell_9_2 cell_9_3) true))
(assert
 (and (distinct cell_7_4 cell_7_5 cell_7_6 cell_8_4 cell_8_5 cell_8_6 cell_9_4 cell_9_5 cell_9_6) true))
(assert
 (and (distinct cell_7_7 cell_7_8 cell_7_9 cell_8_7 cell_8_8 cell_8_9 cell_9_7 cell_9_8 cell_9_9) true))
(assert
 (let (($x1143 (and (distinct cell_5_9 cell_6_8 cell_7_7 cell_8_6) true)))
 (let (($x2846 (and (distinct cell_2_9 cell_3_8 cell_4_7 cell_5_6 cell_6_5 cell_7_4 cell_8_3 cell_9_2) true)))
 (let (($x12 (and (distinct cell_1_8 cell_2_7 cell_3_6 cell_4_5 cell_5_4 cell_6_3 cell_7_2 cell_8_1) true)))
 (let (($x2164 (and (distinct cell_1_5 cell_2_4 cell_3_3 cell_4_2) true)))
 (let (($x2488 (and (distinct cell_5_1 cell_6_2 cell_7_3 cell_8_4) true)))
 (let (($x947 (and (distinct cell_2_1 cell_3_2 cell_4_3 cell_5_4 cell_6_5 cell_7_6 cell_8_7 cell_9_8) true)))
 (let (($x2596 (and (distinct cell_1_2 cell_2_3 cell_3_4 cell_4_5 cell_5_6 cell_6_7 cell_7_8 cell_8_9) true)))
 (let (($x2598 (and (distinct cell_1_5 cell_2_6 cell_3_7 cell_4_8) true)))
 (and $x2598 $x2596 $x947 $x2488 $x2164 $x12 $x2846 $x1143))))))))))
(assert
 (= cell_8_6 2))
(check-sat)
